11934
1273
10535
126

34 28 20 112 18 67 

7
88 5 3 4 10 9 11 13 14 15 1 2 6 7 12 8 
87 95 102 101 99 103 104 107 105 96 93 94 97 114 118 108 109 115 
120 69 70 71 74 72 78 77 76 73 80 79 68 98 116 100 106 
82 111 86 85 89 92 91 90 84 117 113 83 81 119 
75 52 54 57 59 61 62 64 66 63 60 58 56 55 
17 16 19 22 24 25 27 33 30 31 36 35 23 21 26 29 37 39 
32 40 43 45 48 47 46 44 41 38 42 49 50 51 65 53 110 


